(set-logic QF_BV)
(declare-fun _substvar_924_ () (_ BitVec 15))
(declare-fun _substvar_930_ () (_ BitVec 1))
(declare-fun _substvar_817_ () (_ BitVec 1))
(declare-fun _substvar_973_ () (_ BitVec 15))
(declare-fun _substvar_949_ () (_ BitVec 15))
(declare-fun _substvar_1086_ () Bool)
(declare-fun _substvar_941_ () (_ BitVec 15))
(declare-fun _substvar_965_ () (_ BitVec 15))
(declare-fun _substvar_867_ () (_ BitVec 1))
(declare-fun _substvar_742_ () (_ BitVec 15))
(declare-fun _substvar_760_ () (_ BitVec 15))
(assert (and true true true true true true true true true true true true true true true true true true true true true true true true true true true true true true true true true true true true true true true true true true true true true true true true true true true true true true true true true true true true true true true (= _substvar_941_ (concat (_ bv0 14) _substvar_867_)) true true true true true true true true true true true (ite _substvar_1086_ (= _substvar_973_ (_ bv0 15)) (= _substvar_973_ (concat (_ bv0 14) _substvar_930_))) (= _substvar_924_ (concat ((_ extract 13 0) _substvar_973_) (bvxor ((_ extract 14 14) _substvar_973_) ((_ extract 13 13) _substvar_973_)))) (= _substvar_742_ (concat ((_ extract 13 0) _substvar_924_) (_ bv0 1))) (= _substvar_760_ (concat (_ bv0 14) (bvxor (_ bv0 1) ((_ extract 13 13) _substvar_742_)))) (= _substvar_949_ (concat ((_ extract 13 0) _substvar_760_) (_ bv0 1))) true true true true true true true true true true true true true true true true true true true true true true true true true true true true true true true true true true true true true true true true true true true true true true true (= _substvar_965_ (concat (_ bv0 14) _substvar_817_)) true true true true true true true true true true true true true true true true true true true true true true true true true true true true true true true true true true true true (= (or false false false false false false false false false false false false false false false false false false (= _substvar_941_ _substvar_949_) false false (= _substvar_941_ _substvar_965_) false false (= _substvar_949_ _substvar_965_) false false false) false)))
(check-sat)
(exit)
